32	0

0	2	2	4
3	4	3	5	6	7
5	2	9	10
5	1	7
3	2	8	12
5	2	9	10
1	2	8	12
1	2	9	10
10	3	13	15	16
4	2	11	14
1	3	13	15	16
8	3	13	15	16
8	1	17
7	1	16
6	1	17
7	1	17
5	3	18	19	20
8	3	21	22	24
8	3	21	22	24
9	1	21
1	3	23	25	29
3	2	26	28
3	2	27	31
9	2	27	31
2	2	26	28
1	2	27	31
3	1	30
6	2	30	31
9	1	30
10	1	32
5	1	32
0	0
